; benchmark generated from python API
(set-info :status unknown)
(declare-datatypes ((RealState 0)) (((RMk1 (rval1 Real)) (RMk2 (rval2 Real)))))
 (assert
 (forall ((|v11:0| Real) )(forall ((|v10:1| Real) )(forall ((|v9:2| Real) )(forall ((|v8:3| Real) )(exists ((|v7:4_st| RealState) (val!4352 Real) )(exists ((|v6:5_st| RealState) (val!4353 Real) )(exists ((|v5:6_st| RealState) (val!4354 Real) )(exists ((|v4:7_st| RealState) (val!4355 Real) )(forall ((|v3:8| Real) )(forall ((|v2:9| Real) )(forall ((|v1:10| Real) )(forall ((|v0:11| Real) )(let ((?x2324 (- 1.0)))
 (let ((?x2075 (* 4.0 |v8:3|)))
 (let (($x1995 (<= (+ (+ (+ (* ?x2324 |v9:2|) (* 3.0 |v11:0|)) (* 14.0 |v11:0|)) ?x2075) ?x2324)))
 (let ((?x698 (* 14.0 |v11:0|)))
 (let ((?x792 (* 16.0 |v1:10|)))
 (let ((?x418 (+ (+ (+ (* 13.0 (rval2 |v6:5_st|)) (* (- 12.0) (rval2 |v5:6_st|))) ?x792) ?x698)))
 (let ((?x1581 (- 17.0)))
 (let ((?x16 (* 9.0 |v9:2|)))
 (let ((?x1644 (+ (+ (* 5.0 |v2:9|) (* (- 2.0) |v9:2|)) (* (- 16.0) (rval2 |v6:5_st|)))))
 (let ((?x1847 (- 9.0)))
 (let ((?x2930 (- 2.0)))
 (let ((?x3006 (* ?x2930 |v2:9|)))
 (let ((?x468 (rval2 |v4:7_st|)))
 (let ((?x2067 (* 14.0 ?x468)))
 (let (($x728 (<= (+ (+ (+ (* 15.0 |v9:2|) (* 17.0 (rval2 |v5:6_st|))) ?x2067) ?x3006) ?x1847)))
 (let ((?x977 (- 4.0)))
 (let ((?x796 (* 12.0 |v8:3|)))
 (let ((?x1365 (+ (+ (+ (* (- 5.0) |v3:8|) (* 0.0 ?x468)) (* 11.0 |v2:9|)) ?x796)))
 (let ((?x1033 (+ (+ (+ (* 11.0 |v1:10|) (* 19.0 (rval2 |v7:4_st|))) (* (- 12.0) |v9:2|)) (* (- 8.0) ?x468))))
 (let ((?x1563 (- 18.0)))
 (let ((?x574 (- 3.0)))
 (let ((?x1668 (* ?x574 |v10:1|)))
 (let ((?x2445 (+ (+ (+ (* 7.0 |v10:1|) (* (- 6.0) |v8:3|)) (* 18.0 |v1:10|)) ?x1668)))
 (let ((?x286 (- 15.0)))
 (let ((?x60 (* 17.0 |v10:1|)))
 (let ((?x1050 (- 16.0)))
 (let ((?x1924 (* ?x1050 |v2:9|)))
 (let ((?x1925 (+ (* 15.0 |v1:10|) ?x1924)))
 (let (($x1473 (and (<= (+ (+ ?x1925 (* (- 11.0) (rval2 |v7:4_st|))) ?x60) ?x286) (<= ?x2445 ?x1563))))
 (let (($x2416 (or (and $x1473 (or (<= ?x1033 9.0) (<= ?x1365 ?x977))) (and (and $x728 (<= (+ ?x1644 ?x16) ?x1581)) (and (<= ?x418 ?x2324) $x1995)))))
 (let (($x490 (<= (+ (+ (+ (* 7.0 |v10:1|) ?x792) (* 10.0 |v8:3|)) (* ?x2930 |v10:1|)) 6.0)))
 (let ((?x3045 (- 14.0)))
 (let ((?x1102 (+ (+ (+ (* 11.0 |v8:3|) (* 12.0 |v9:2|)) (* 2.0 (rval2 |v5:6_st|))) (* (- 10.0) (rval2 |v6:5_st|)))))
 (let ((?x3191 (* 7.0 |v10:1|)))
 (let ((?x1618 (+ (+ (+ (* (- 8.0) |v3:8|) (* 18.0 |v3:8|)) (* 3.0 |v9:2|)) ?x3191)))
 (let ((?x894 (- 20.0)))
 (let ((?x2634 (+ (+ (+ (* ?x2324 |v10:1|) (* 17.0 (rval2 |v5:6_st|))) (* 5.0 |v11:0|)) (* ?x286 |v8:3|))))
 (let (($x1663 (<= (+ (+ (+ |v0:11| (* ?x1847 |v8:3|)) (* 20.0 |v10:1|)) (* (- 5.0) |v8:3|)) 20.0)))
 (let ((?x2923 (- 19.0)))
 (let ((?x268 (- 12.0)))
 (let ((?x2991 (* ?x268 |v0:11|)))
 (let ((?x2360 (+ (+ (+ (* (- 10.0) |v10:1|) (* 16.0 (rval2 |v7:4_st|))) ?x2991) (* 8.0 |v11:0|))))
 (let ((?x760 (rval2 |v7:4_st|)))
 (let ((?x1249 (+ (+ (+ (* (- 6.0) |v9:2|) (* 0.0 |v10:1|)) (* 17.0 (rval2 |v5:6_st|))) ?x760)))
 (let (($x1964 (or (and (<= ?x1249 ?x1847) (or (<= ?x2360 ?x2923) $x1663)) (or (or (<= ?x2634 ?x894) (<= ?x1618 18.0)) (or (<= ?x1102 ?x3045) $x490)))))
 (let ((?x2583 (- 5.0)))
 (let ((?x2286 (+ (+ (* 20.0 |v0:11|) (* 4.0 |v3:8|)) (* ?x1581 |v3:8|))))
 (let ((?x1205 (+ (+ (+ (* ?x1563 |v2:9|) (* 5.0 (rval2 |v5:6_st|))) (* ?x2324 ?x468)) (* ?x1847 |v9:2|))))
 (let ((?x1591 (* 6.0 |v0:11|)))
 (let (($x2612 (<= (+ (+ (+ (* ?x2930 |v11:0|) (* ?x1050 |v8:3|)) (* 14.0 |v8:3|)) ?x1591) 12.0)))
 (let (($x2725 (<= (+ (+ (+ (* (- 7.0) |v9:2|) (* ?x1050 |v9:2|)) (* ?x894 |v8:3|)) ?x468) 7.0)))
 (let (($x1521 (and (or $x2725 $x2612) (and (<= ?x1205 0.0) (<= (+ ?x2286 (* ?x894 |v9:2|)) ?x2583)))))
 (let (($x1021 (<= (+ (+ (+ (* 20.0 |v3:8|) (* 20.0 |v3:8|)) (* 18.0 |v10:1|)) ?x1924) 13.0)))
 (let (($x2311 (<= (+ (+ (+ ?x3006 (* ?x1050 (rval2 |v5:6_st|))) (* ?x1563 |v10:1|)) (* ?x268 ?x760)) 14.0)))
 (let ((?x1944 (- 13.0)))
 (let ((?x255 (* ?x1944 |v3:8|)))
 (let ((?x1687 (+ (+ (+ (* 11.0 |v3:8|) (* ?x1581 |v2:9|)) (* 9.0 (rval2 |v5:6_st|))) ?x255)))
 (let (($x2515 (<= (+ (+ (+ (* ?x1050 |v8:3|) ?x1668) (* ?x1563 |v2:9|)) (* 18.0 |v10:1|)) ?x2324)))
 (let ((?x2876 (* ?x2930 |v3:8|)))
 (let ((?x605 (+ (+ (+ (* 18.0 ?x760) (* 17.0 ?x760)) (* (- 7.0) (rval2 |v5:6_st|))) ?x2876)))
 (let ((?x2125 (* 3.0 |v11:0|)))
 (let (($x2929 (<= (+ (+ (+ (* ?x1847 (rval2 |v6:5_st|)) (* ?x894 (rval2 |v5:6_st|))) ?x2991) ?x2125) 11.0)))
 (let ((?x1711 (rval2 |v5:6_st|)))
 (let ((?x2801 (* 3.0 ?x1711)))
 (let ((?x3194 (+ (+ (+ (* 20.0 ?x760) (* 8.0 |v9:2|)) (* (- 8.0) |v3:8|)) ?x2801)))
 (let ((?x934 (rval2 |v6:5_st|)))
 (let ((?x2292 (* ?x268 ?x934)))
 (let (($x1528 (or (<= (+ (+ (+ (* ?x574 ?x934) (* ?x894 ?x468)) ?x792) ?x2292) 3.0) (<= ?x3194 ?x3045))))
 (let ((?x532 (- 7.0)))
 (let ((?x2032 (+ (+ (+ (* ?x894 ?x1711) (* ?x1050 |v0:11|)) (* 17.0 |v2:9|)) (* ?x2923 |v10:1|))))
 (let (($x1079 (and (<= ?x2032 10.0) (<= (+ (+ (+ |v2:9| (* 8.0 ?x934)) (* ?x894 |v11:0|)) ?x468) ?x532))))
 (let ((?x93 (* 0.0 |v3:8|)))
 (let (($x733 (<= (+ (+ (+ (* ?x2583 |v11:0|) (* 20.0 ?x468)) (* 0.0 |v1:10|)) ?x93) ?x2930)))
 (let ((?x2939 (+ (+ (+ (* 8.0 ?x760) (* 7.0 |v9:2|)) (* 9.0 |v8:3|)) (* 13.0 ?x760))))
 (let (($x471 (or (or (or (<= ?x2939 16.0) $x733) $x1079) (or $x1528 (or $x2929 (<= ?x605 0.0))))))
 (let (($x1700 (and $x471 (or (or (and $x2515 (<= ?x1687 18.0)) (or $x2311 $x1021)) $x1521))))
 (let ((?x1334 (* 18.0 |v2:9|)))
 (let (($x2668 (<= (+ (+ (+ (* 4.0 ?x760) (* 10.0 |v2:9|)) (* 2.0 |v9:2|)) ?x1334) 7.0)))
 (let ((?x1628 (- 10.0)))
 (let ((?x1982 (* 17.0 |v0:11|)))
 (let (($x2369 (<= (+ (+ (+ (* 19.0 |v1:10|) (* ?x286 |v2:9|)) (* ?x2583 |v11:0|)) ?x1982) ?x1628)))
 (let ((?x2554 (+ (+ (+ (* 10.0 ?x760) (* 14.0 |v8:3|)) (* 8.0 |v0:11|)) (* ?x894 ?x760))))
 (let (($x1073 (<= (+ (+ (+ (* 0.0 |v9:2|) (* 7.0 |v1:10|)) (* 0.0 ?x1711)) ?x2801) 15.0)))
 (let ((?x3129 (+ (+ (+ (* 11.0 ?x760) (* 15.0 |v10:1|)) (* (- 11.0) |v2:9|)) |v0:11|)))
 (let ((?x294 (+ (+ (+ (* ?x2923 |v3:8|) (* (- 6.0) ?x1711)) (* ?x2324 ?x1711)) (* ?x2583 ?x1711))))
 (let ((?x1105 (+ (+ (+ (* 14.0 |v1:10|) (* ?x2930 ?x468)) (* ?x268 ?x1711)) (* (- 8.0) ?x934))))
 (let (($x1817 (<= (+ (+ (+ ?x1711 (* 4.0 |v1:10|)) (* ?x1563 ?x934)) (* (- 11.0) |v8:3|)) ?x286)))
 (let (($x1255 (and (or $x1817 (<= ?x1105 5.0)) (and (<= ?x294 5.0) (<= ?x3129 ?x286)))))
 (let ((?x277 (- 6.0)))
 (let ((?x564 (* ?x277 |v8:3|)))
 (let (($x2038 (<= (+ (+ (+ (* ?x1581 |v10:1|) (* ?x268 ?x468)) (* 0.0 ?x468)) ?x564) 14.0)))
 (let ((?x2751 (* 15.0 ?x934)))
 (let (($x397 (<= (+ (+ (+ (* 6.0 |v1:10|) (* 10.0 ?x1711)) (* ?x2583 |v2:9|)) ?x2751) ?x1581)))
 (let ((?x1451 (* 6.0 |v10:1|)))
 (let (($x1441 (<= (+ (+ (+ (* 18.0 ?x760) (* 6.0 ?x468)) (* 8.0 |v9:2|)) ?x1451) ?x2324)))
 (let ((?x2681 (+ (+ (+ (* 17.0 ?x760) (* 6.0 |v2:9|)) (* ?x3045 ?x1711)) (* ?x532 ?x468))))
 (let ((?x2092 (* 9.0 ?x468)))
 (let (($x1631 (<= (+ (+ (+ (* 14.0 |v1:10|) (* ?x1628 ?x1711)) (* 10.0 ?x934)) ?x2092) ?x1628)))
 (let (($x1228 (<= (+ (+ (+ (* ?x286 |v2:9|) ?x60) (* 7.0 |v2:9|)) (* 4.0 ?x468)) 6.0)))
 (let ((?x2344 (* ?x2923 |v0:11|)))
 (let (($x3035 (<= (+ (+ (+ (* 14.0 |v3:8|) (* ?x286 |v3:8|)) (* 6.0 |v8:3|)) ?x2344) ?x2923)))
 (let ((?x2881 (+ (+ (+ (* ?x3045 |v0:11|) (* 12.0 ?x1711)) (* 0.0 |v0:11|)) (* 19.0 ?x468))))
 (let ((?x441 (+ (+ (+ (* 5.0 ?x468) (* 14.0 |v1:10|)) (* (- 8.0) |v0:11|)) (* 11.0 ?x1711))))
 (let (($x2358 (and (and (and (<= ?x441 19.0) (<= ?x2881 0.0)) (or $x3035 $x1228)) (and (or $x1631 (<= ?x2681 10.0)) (and $x1441 $x397)))))
 (let (($x3149 (<= (+ (+ (+ (* ?x1628 |v9:2|) ?x2292) (* 20.0 |v2:9|)) (* ?x2923 ?x760)) ?x2930)))
 (let ((?x2935 (* 14.0 |v3:8|)))
 (let (($x1792 (<= (+ (+ (+ (* ?x3045 |v0:11|) (* ?x1944 ?x468)) (* ?x894 ?x934)) ?x2935) ?x1581)))
 (let ((?x282 (* ?x277 ?x1711)))
 (let (($x291 (<= (+ (+ (+ (* 12.0 |v3:8|) (* ?x1581 |v9:2|)) (* 0.0 |v8:3|)) ?x282) 11.0)))
 (let ((?x2648 (* ?x268 ?x760)))
 (let (($x2131 (<= (+ (+ (+ (* 11.0 |v9:2|) (* ?x1581 ?x934)) (* 7.0 |v3:8|)) ?x2648) ?x1628)))
 (let ((?x2804 (* 14.0 |v1:10|)))
 (let (($x972 (<= (+ (+ (+ (* ?x1847 |v8:3|) (* ?x1847 ?x760)) (* 5.0 |v2:9|)) ?x2804) ?x2324)))
 (let ((?x1973 (+ (+ (+ (* 18.0 |v8:3|) (* ?x1050 |v10:1|)) (* 20.0 ?x1711)) (* ?x1563 ?x760))))
 (let (($x1978 (<= (+ (+ (+ (* ?x1847 |v1:10|) (* ?x1847 |v0:11|)) (* 2.0 ?x760)) ?x2292) 18.0)))
 (let (($x3049 (<= (+ (+ (+ (* ?x286 |v9:2|) (* ?x1563 |v10:1|)) (* 8.0 ?x760)) ?x282) 14.0)))
 (let (($x305 (and (and (and $x3049 $x1978) (or (<= ?x1973 2.0) $x972)) (or (and $x2131 $x291) (and $x1792 $x3149)))))
 (let (($x1568 (and (or $x305 $x2358) (or $x2038 (or $x1255 (and (or $x1073 (<= ?x2554 ?x1050)) (or $x2369 $x2668)))))))
 (let (($x3027 (not (= |v4:7_st| (RMk1 val!4355)))))
 (let (($x820 (not (= |v5:6_st| (RMk1 val!4354)))))
 (let (($x1286 (not (= |v6:5_st| (RMk1 val!4353)))))
 (let (($x2483 (not (= |v7:4_st| (RMk1 val!4352)))))
 (and $x2483 $x1286 $x820 $x3027 (or $x1568 (and $x1700 (or $x1964 $x2416)))))))))))))))))))))))))))))))))))))))))))))))))))))))))))))))))))))))))))))))))))))))))))))))))))))))))))))))))))))))))))))))
 )
 )
 )
 )
 )
 )
 )
 )
 )
 )
 )
 )
(check-sat)
